(set-info :smt-lib-version 2.6)
(set-logic QF_NIA)
(set-info :source |
Generated by: Cristina Borralleras, Daniel Larraz, Albert Oliveras, Enric Rodriguez-Carbonell, Albert Rubio
Generated on: 2017-04-27
Generator: VeryMax
Application: Termination proving
Target solver: barcelogic
|)
(set-info :license "https://creativecommons.org/licenses/by/4.0/")
(set-info :category "industrial")
(set-info :status unknown)
(declare-fun Nl10arg11 () Int)
(declare-fun Nl10arg21 () Int)
(declare-fun Nl10arg31 () Int)
(declare-fun Nl10arg41 () Int)
(declare-fun Nl10arg12 () Int)
(declare-fun Nl10arg22 () Int)
(declare-fun Nl10arg32 () Int)
(declare-fun Nl10arg42 () Int)
(declare-fun lam0n0 () Int)
(declare-fun lam0n1 () Int)
(declare-fun lam0n2 () Int)
(declare-fun lam0n3 () Int)
(declare-fun lam0n4 () Int)
(declare-fun lam0n5 () Int)
(declare-fun lam0n6 () Int)
(declare-fun lam0n7 () Int)
(declare-fun Nl10CT1 () Int)
(declare-fun Nl10CT2 () Int)
(declare-fun lam1n0 () Int)
(declare-fun lam1n1 () Int)
(declare-fun lam1n2 () Int)
(declare-fun lam1n3 () Int)
(declare-fun lam1n4 () Int)
(declare-fun lam1n5 () Int)
(declare-fun lam1n6 () Int)
(declare-fun lam1n7 () Int)
(declare-fun lam2n0 () Int)
(declare-fun lam2n1 () Int)
(declare-fun lam2n2 () Int)
(declare-fun lam2n3 () Int)
(declare-fun lam2n4 () Int)
(declare-fun lam2n5 () Int)
(declare-fun lam2n6 () Int)
(declare-fun lam2n7 () Int)
(declare-fun lam3n0 () Int)
(declare-fun lam3n1 () Int)
(declare-fun lam3n2 () Int)
(declare-fun lam3n3 () Int)
(declare-fun lam3n4 () Int)
(declare-fun lam3n5 () Int)
(declare-fun lam3n6 () Int)
(declare-fun lam3n7 () Int)
(declare-fun lam3n8 () Int)
(declare-fun lam3n9 () Int)
(declare-fun lam3n10 () Int)
(declare-fun lam3n11 () Int)
(declare-fun lam3n12 () Int)
(declare-fun lam3n13 () Int)
(declare-fun lam3n14 () Int)
(declare-fun lam3n15 () Int)
(declare-fun lam4n0 () Int)
(declare-fun lam4n1 () Int)
(declare-fun lam4n2 () Int)
(declare-fun lam4n3 () Int)
(declare-fun lam4n4 () Int)
(declare-fun lam4n5 () Int)
(declare-fun lam4n6 () Int)
(declare-fun lam4n7 () Int)
(declare-fun lam4n8 () Int)
(declare-fun lam4n9 () Int)
(declare-fun lam4n10 () Int)
(declare-fun lam4n11 () Int)
(declare-fun lam4n12 () Int)
(declare-fun lam4n13 () Int)
(declare-fun lam4n14 () Int)
(declare-fun lam4n15 () Int)
(declare-fun lam5n0 () Int)
(declare-fun lam5n1 () Int)
(declare-fun lam5n2 () Int)
(declare-fun lam5n3 () Int)
(declare-fun lam5n4 () Int)
(declare-fun lam5n5 () Int)
(declare-fun lam5n6 () Int)
(declare-fun lam5n7 () Int)
(declare-fun lam5n8 () Int)
(declare-fun lam5n9 () Int)
(declare-fun lam5n10 () Int)
(declare-fun lam6n0 () Int)
(declare-fun lam6n1 () Int)
(declare-fun lam6n2 () Int)
(declare-fun lam6n3 () Int)
(declare-fun lam6n4 () Int)
(declare-fun lam6n5 () Int)
(declare-fun lam6n6 () Int)
(declare-fun lam6n7 () Int)
(declare-fun lam6n8 () Int)
(declare-fun lam6n9 () Int)
(declare-fun lam6n10 () Int)
(declare-fun lam7n0 () Int)
(declare-fun lam7n1 () Int)
(declare-fun lam7n2 () Int)
(declare-fun lam7n3 () Int)
(declare-fun lam7n4 () Int)
(declare-fun lam7n5 () Int)
(declare-fun lam7n6 () Int)
(declare-fun lam7n7 () Int)
(declare-fun lam7n8 () Int)
(declare-fun lam7n9 () Int)
(declare-fun lam7n10 () Int)
(declare-fun lam7n11 () Int)
(declare-fun lam7n12 () Int)
(declare-fun lam8n0 () Int)
(declare-fun lam8n1 () Int)
(declare-fun lam8n2 () Int)
(declare-fun lam8n3 () Int)
(declare-fun lam8n4 () Int)
(declare-fun lam8n5 () Int)
(declare-fun lam8n6 () Int)
(declare-fun lam8n7 () Int)
(declare-fun lam8n8 () Int)
(declare-fun lam8n9 () Int)
(declare-fun lam8n10 () Int)
(declare-fun lam8n11 () Int)
(declare-fun lam8n12 () Int)
(declare-fun lam9n0 () Int)
(declare-fun lam9n1 () Int)
(declare-fun lam9n2 () Int)
(declare-fun lam9n3 () Int)
(declare-fun lam9n4 () Int)
(declare-fun lam9n5 () Int)
(declare-fun lam9n6 () Int)
(declare-fun lam9n7 () Int)
(declare-fun lam9n8 () Int)
(declare-fun lam9n9 () Int)
(declare-fun lam10n0 () Int)
(declare-fun lam10n1 () Int)
(declare-fun lam10n2 () Int)
(declare-fun lam10n3 () Int)
(declare-fun lam10n4 () Int)
(declare-fun lam10n5 () Int)
(declare-fun lam10n6 () Int)
(declare-fun lam10n7 () Int)
(declare-fun lam10n8 () Int)
(declare-fun lam10n9 () Int)
(declare-fun undef5 () Int)
(declare-fun undef105 () Int)
(declare-fun undef17 () Int)
(declare-fun undef18 () Int)
(declare-fun undef77 () Int)
(declare-fun undef6 () Int)
(declare-fun undef76 () Int)
(declare-fun undef78 () Int)
(declare-fun undef19 () Int)
(declare-fun undef79 () Int)
(declare-fun undef71 () Int)
(declare-fun undef72 () Int)
(declare-fun undef73 () Int)
(declare-fun undef75 () Int)
(declare-fun undef74 () Int)
(declare-fun undef9 () Int)
(declare-fun undef10 () Int)
(declare-fun undef80 () Int)
(declare-fun undef82 () Int)
(declare-fun undef81 () Int)
(declare-fun undef84 () Int)
(declare-fun undef12 () Int)
(declare-fun undef83 () Int)
(declare-fun undef85 () Int)
(declare-fun undef87 () Int)
(declare-fun undef86 () Int)
(declare-fun undef88 () Int)
(declare-fun lam14n0 () Int)
(declare-fun lam14n1 () Int)
(declare-fun lam14n2 () Int)
(declare-fun lam14n3 () Int)
(declare-fun lam14n4 () Int)
(declare-fun lam14n5 () Int)
(declare-fun lam14n6 () Int)
(declare-fun lam14n7 () Int)
(declare-fun RFN1_CT () Int)
(declare-fun RFN1_arg1 () Int)
(declare-fun RFN1_arg2 () Int)
(declare-fun RFN1_arg3 () Int)
(declare-fun RFN1_arg4 () Int)
(declare-fun lam12n0 () Int)
(declare-fun lam12n1 () Int)
(declare-fun lam12n2 () Int)
(declare-fun lam12n3 () Int)
(declare-fun lam12n4 () Int)
(declare-fun lam12n5 () Int)
(declare-fun lam12n6 () Int)
(declare-fun lam12n7 () Int)
(declare-fun lam13n0 () Int)
(declare-fun lam13n1 () Int)
(declare-fun lam13n2 () Int)
(declare-fun lam13n3 () Int)
(declare-fun lam13n4 () Int)
(declare-fun lam13n5 () Int)
(declare-fun lam13n6 () Int)
(declare-fun lam13n7 () Int)
(declare-fun lam11n0 () Int)
(declare-fun lam11n1 () Int)
(declare-fun lam11n2 () Int)
(declare-fun lam11n3 () Int)
(declare-fun lam11n4 () Int)
(declare-fun lam11n5 () Int)
(declare-fun lam11n6 () Int)
(declare-fun lam11n7 () Int)
(assert ( and ( <= ( - 1 ) Nl10arg11 ) ( <= Nl10arg11 1 ) ( <= ( - 1 ) Nl10arg21 ) ( <= Nl10arg21 1 ) ( <= ( - 1 ) Nl10arg31 ) ( <= Nl10arg31 1 ) ( <= ( - 1 ) Nl10arg41 ) ( <= Nl10arg41 1 ) ( <= ( - 1 ) Nl10arg12 ) ( <= Nl10arg12 1 ) ( <= ( - 1 ) Nl10arg22 ) ( <= Nl10arg22 1 ) ( <= ( - 1 ) Nl10arg32 ) ( <= Nl10arg32 1 ) ( <= ( - 1 ) Nl10arg42 ) ( <= Nl10arg42 1 ) ))
(assert ( or ( and ( >= lam0n0 0 ) ( >= lam0n1 0 ) ( >= lam0n2 0 ) ( >= lam0n3 0 ) ( >= lam0n4 0 ) ( >= lam0n5 0 ) ( >= lam0n6 0 ) ( >= lam0n7 0 ) ( > ( + ( * 1 lam0n3 ) ( * 1 lam0n4 ) ( * 1 lam0n5 ) ( * Nl10CT1 lam0n6 ) ( * Nl10CT2 lam0n7 ) ( - 1 ) ) 0 ) ( = ( + ( * ( - 1 ) lam0n3 ) ( * Nl10arg11 lam0n6 ) ( * Nl10arg12 lam0n7 ) ) 0 ) ( = ( + ( * ( - 1 ) lam0n4 ) ( * Nl10arg21 lam0n6 ) ( * Nl10arg22 lam0n7 ) ) 0 ) ( = ( + ( * ( - 1 ) lam0n5 ) ( * Nl10arg31 lam0n6 ) ( * Nl10arg32 lam0n7 ) ) 0 ) ( = ( + ( * Nl10arg41 lam0n6 ) ( * Nl10arg42 lam0n7 ) ) 0 ) ( = ( * ( - 1 ) lam0n0 ) 0 ) ( = ( * ( - 1 ) lam0n1 ) 0 ) ( = ( * ( - 1 ) lam0n2 ) 0 ) ) ( and ( >= lam1n0 0 ) ( >= lam1n1 0 ) ( >= lam1n2 0 ) ( >= lam1n3 0 ) ( >= lam1n4 0 ) ( >= lam1n5 0 ) ( >= lam1n6 0 ) ( >= lam1n7 0 ) ( > ( + ( * 1 lam1n3 ) ( * 1 lam1n4 ) ( * 1 lam1n5 ) ( * Nl10CT1 lam1n6 ) ( * Nl10CT2 lam1n7 ) ( - 1 ( + ( + ( + ( + Nl10CT1 ( * Nl10arg11 0 ) ) ( * Nl10arg21 0 ) ) ( * Nl10arg31 0 ) ) ( * Nl10arg41 0 ) ) ) ) 0 ) ( = ( + ( * ( - 1 ) lam1n3 ) ( * Nl10arg11 lam1n6 ) ( * Nl10arg12 lam1n7 ) ) 0 ) ( = ( + ( * ( - 1 ) lam1n4 ) ( * Nl10arg21 lam1n6 ) ( * Nl10arg22 lam1n7 ) ) 0 ) ( = ( + ( * ( - 1 ) lam1n5 ) ( * Nl10arg31 lam1n6 ) ( * Nl10arg32 lam1n7 ) ) 0 ) ( = ( + ( * Nl10arg41 lam1n6 ) ( * Nl10arg42 lam1n7 ) ) 0 ) ( = ( + ( * ( - 1 ) lam1n0 ) ( - ( + 0 ( * Nl10arg11 1 ) ) ) ) 0 ) ( = ( + ( * ( - 1 ) lam1n1 ) ( - ( + 0 ( * Nl10arg21 1 ) ) ) ) 0 ) ( = ( + ( * ( - 1 ) lam1n2 ) ( - ( + 0 ( * Nl10arg31 1 ) ) ) ) 0 ) ( = ( - ( + 0 ( * Nl10arg41 1 ) ) ) 0 ) ) ))
(assert ( or ( and ( >= lam0n0 0 ) ( >= lam0n1 0 ) ( >= lam0n2 0 ) ( >= lam0n3 0 ) ( >= lam0n4 0 ) ( >= lam0n5 0 ) ( >= lam0n6 0 ) ( >= lam0n7 0 ) ( > ( + ( * 1 lam0n3 ) ( * 1 lam0n4 ) ( * 1 lam0n5 ) ( * Nl10CT1 lam0n6 ) ( * Nl10CT2 lam0n7 ) ( - 1 ) ) 0 ) ( = ( + ( * ( - 1 ) lam0n3 ) ( * Nl10arg11 lam0n6 ) ( * Nl10arg12 lam0n7 ) ) 0 ) ( = ( + ( * ( - 1 ) lam0n4 ) ( * Nl10arg21 lam0n6 ) ( * Nl10arg22 lam0n7 ) ) 0 ) ( = ( + ( * ( - 1 ) lam0n5 ) ( * Nl10arg31 lam0n6 ) ( * Nl10arg32 lam0n7 ) ) 0 ) ( = ( + ( * Nl10arg41 lam0n6 ) ( * Nl10arg42 lam0n7 ) ) 0 ) ( = ( * ( - 1 ) lam0n0 ) 0 ) ( = ( * ( - 1 ) lam0n1 ) 0 ) ( = ( * ( - 1 ) lam0n2 ) 0 ) ) ( and ( >= lam2n0 0 ) ( >= lam2n1 0 ) ( >= lam2n2 0 ) ( >= lam2n3 0 ) ( >= lam2n4 0 ) ( >= lam2n5 0 ) ( >= lam2n6 0 ) ( >= lam2n7 0 ) ( > ( + ( * 1 lam2n3 ) ( * 1 lam2n4 ) ( * 1 lam2n5 ) ( * Nl10CT1 lam2n6 ) ( * Nl10CT2 lam2n7 ) ( - 1 ( + ( + ( + ( + Nl10CT2 ( * Nl10arg12 0 ) ) ( * Nl10arg22 0 ) ) ( * Nl10arg32 0 ) ) ( * Nl10arg42 0 ) ) ) ) 0 ) ( = ( + ( * ( - 1 ) lam2n3 ) ( * Nl10arg11 lam2n6 ) ( * Nl10arg12 lam2n7 ) ) 0 ) ( = ( + ( * ( - 1 ) lam2n4 ) ( * Nl10arg21 lam2n6 ) ( * Nl10arg22 lam2n7 ) ) 0 ) ( = ( + ( * ( - 1 ) lam2n5 ) ( * Nl10arg31 lam2n6 ) ( * Nl10arg32 lam2n7 ) ) 0 ) ( = ( + ( * Nl10arg41 lam2n6 ) ( * Nl10arg42 lam2n7 ) ) 0 ) ( = ( + ( * ( - 1 ) lam2n0 ) ( - ( + 0 ( * Nl10arg12 1 ) ) ) ) 0 ) ( = ( + ( * ( - 1 ) lam2n1 ) ( - ( + 0 ( * Nl10arg22 1 ) ) ) ) 0 ) ( = ( + ( * ( - 1 ) lam2n2 ) ( - ( + 0 ( * Nl10arg32 1 ) ) ) ) 0 ) ( = ( - ( + 0 ( * Nl10arg42 1 ) ) ) 0 ) ) ))
(assert ( or ( and ( <= ( + undef5 ( * ( - 1 ) undef105 ) ) 0 ) ( <= ( + ( * ( - 1 ) undef5 ) undef17 ) 0 ) ( <= ( + ( * ( - 1 ) undef18 ) undef77 ) 0 ) ( <= ( + 1 ( * ( - 1 ) undef5 ) ) 0 ) ( <= ( + 1 ( * ( - 1 ) undef6 ) ) 0 ) ( <= ( + 1 ( * ( - 1 ) undef17 ) ) 0 ) ( <= ( + 1 ( * ( - 1 ) undef17 ) undef76 ) 0 ) ( <= ( + 1 ( * ( - 1 ) undef17 ) undef78 ) 0 ) ( <= ( + 1 ( * ( - 1 ) undef18 ) ) 0 ) ( <= ( + 1 ( * ( - 1 ) undef18 ) undef76 ) 0 ) ( <= ( + 1 ( * ( - 1 ) undef18 ) undef78 ) 0 ) ( not ( <= undef76 0 ) ) ( <= ( + 1 ( * ( - 1 ) undef77 ) ) 0 ) ( not ( <= undef78 0 ) ) ( <= ( + 1 ( * ( - 1 ) undef105 ) ) 0 ) ( <= ( + 2 ( * ( - 1 ) undef18 ) undef19 ) 0 ) ( <= ( + ( + ( + ( + ( + Nl10CT1 ( * Nl10arg11 0 ) ) ( * Nl10arg21 0 ) ) ( * Nl10arg31 0 ) ) ( * Nl10arg41 0 ) ) ( * ( + 0 ( * Nl10arg11 1 ) ) undef76 ) ( * ( + 0 ( * Nl10arg21 1 ) ) undef77 ) ( * ( + 0 ( * Nl10arg31 1 ) ) undef78 ) ( * ( + 0 ( * Nl10arg41 1 ) ) undef79 ) ) 0 ) ( <= ( + ( + ( + ( + ( + Nl10CT2 ( * Nl10arg12 0 ) ) ( * Nl10arg22 0 ) ) ( * Nl10arg32 0 ) ) ( * Nl10arg42 0 ) ) ( * ( + 0 ( * Nl10arg12 1 ) ) undef76 ) ( * ( + 0 ( * Nl10arg22 1 ) ) undef77 ) ( * ( + 0 ( * Nl10arg32 1 ) ) undef78 ) ( * ( + 0 ( * Nl10arg42 1 ) ) undef79 ) ) 0 ) ) ( and ( <= ( + undef5 ( * ( - 1 ) undef105 ) ) 0 ) ( <= ( + 1 ( * ( - 1 ) undef5 ) ) 0 ) ( <= ( + 1 ( * ( - 1 ) undef5 ) undef71 ) 0 ) ( <= ( + 1 ( * ( - 1 ) undef5 ) undef72 ) 0 ) ( <= ( + 1 ( * ( - 1 ) undef5 ) undef73 ) 0 ) ( <= ( + 1 ( * ( - 1 ) undef6 ) ) 0 ) ( not ( <= undef71 0 ) ) ( not ( <= undef72 0 ) ) ( not ( <= undef73 0 ) ) ( <= ( + 1 ( * ( - 1 ) undef75 ) ) 0 ) ( <= ( + 1 ( * ( - 1 ) undef105 ) ) 0 ) ( <= ( + ( + ( + ( + ( + Nl10CT1 ( * Nl10arg11 0 ) ) ( * Nl10arg21 0 ) ) ( * Nl10arg31 0 ) ) ( * Nl10arg41 0 ) ) ( * ( + 0 ( * Nl10arg11 1 ) ) undef71 ) ( * ( + 0 ( * Nl10arg21 1 ) ) undef72 ) ( * ( + 0 ( * Nl10arg31 1 ) ) undef73 ) ( * ( + 0 ( * Nl10arg41 1 ) ) undef74 ) ) 0 ) ( <= ( + ( + ( + ( + ( + Nl10CT2 ( * Nl10arg12 0 ) ) ( * Nl10arg22 0 ) ) ( * Nl10arg32 0 ) ) ( * Nl10arg42 0 ) ) ( * ( + 0 ( * Nl10arg12 1 ) ) undef71 ) ( * ( + 0 ( * Nl10arg22 1 ) ) undef72 ) ( * ( + 0 ( * Nl10arg32 1 ) ) undef73 ) ( * ( + 0 ( * Nl10arg42 1 ) ) undef74 ) ) 0 ) ) ( and ( <= ( + undef9 ( * ( - 1 ) undef105 ) ) 0 ) ( <= ( + ( * ( - 1 ) undef10 ) undef80 ) 0 ) ( <= ( + ( * ( - 1 ) undef10 ) undef82 ) 0 ) ( <= ( + 1 ( * ( - 1 ) undef9 ) ) 0 ) ( <= ( + 1 ( * ( - 1 ) undef9 ) undef81 ) 0 ) ( <= ( + 1 ( * ( - 1 ) undef10 ) ) 0 ) ( <= ( + 1 ( * ( - 1 ) undef10 ) undef81 ) 0 ) ( <= ( + 1 ( * ( - 1 ) undef80 ) ) 0 ) ( not ( <= undef81 0 ) ) ( <= ( + 1 ( * ( - 1 ) undef82 ) ) 0 ) ( <= ( + 1 ( * ( - 1 ) undef84 ) ) 0 ) ( <= ( + 1 ( * ( - 1 ) undef105 ) ) 0 ) ( <= ( + 2 ( * ( - 1 ) undef10 ) undef12 ) 0 ) ( <= ( + ( + ( + ( + ( + Nl10CT1 ( * Nl10arg11 0 ) ) ( * Nl10arg21 0 ) ) ( * Nl10arg31 0 ) ) ( * Nl10arg41 0 ) ) ( * ( + 0 ( * Nl10arg11 1 ) ) undef80 ) ( * ( + 0 ( * Nl10arg21 1 ) ) undef81 ) ( * ( + 0 ( * Nl10arg31 1 ) ) undef82 ) ( * ( + 0 ( * Nl10arg41 1 ) ) undef83 ) ) 0 ) ( <= ( + ( + ( + ( + ( + Nl10CT2 ( * Nl10arg12 0 ) ) ( * Nl10arg22 0 ) ) ( * Nl10arg32 0 ) ) ( * Nl10arg42 0 ) ) ( * ( + 0 ( * Nl10arg12 1 ) ) undef80 ) ( * ( + 0 ( * Nl10arg22 1 ) ) undef81 ) ( * ( + 0 ( * Nl10arg32 1 ) ) undef82 ) ( * ( + 0 ( * Nl10arg42 1 ) ) undef83 ) ) 0 ) ) ( and ( <= ( + undef9 ( * ( - 1 ) undef105 ) ) 0 ) ( <= ( + ( * ( - 1 ) undef10 ) undef85 ) 0 ) ( <= ( + ( * ( - 1 ) undef10 ) undef87 ) 0 ) ( <= ( + 1 ( * ( - 1 ) undef9 ) ) 0 ) ( <= ( + 1 ( * ( - 1 ) undef10 ) ) 0 ) ( <= ( + 1 ( * ( - 1 ) undef85 ) ) 0 ) ( <= ( + 1 ( * ( - 1 ) undef86 ) ) 0 ) ( <= ( + 1 ( * ( - 1 ) undef87 ) ) 0 ) ( <= ( + 1 ( * ( - 1 ) undef105 ) ) 0 ) ( <= ( + 2 ( * ( - 1 ) undef10 ) undef12 ) 0 ) ( <= ( + ( + ( + ( + ( + Nl10CT1 ( * Nl10arg11 0 ) ) ( * Nl10arg21 0 ) ) ( * Nl10arg31 0 ) ) ( * Nl10arg41 0 ) ) ( * ( + 0 ( * Nl10arg11 1 ) ) undef85 ) ( * ( + 0 ( * Nl10arg21 1 ) ) undef86 ) ( * ( + 0 ( * Nl10arg31 1 ) ) undef87 ) ( * ( + 0 ( * Nl10arg41 1 ) ) undef88 ) ) 0 ) ( <= ( + ( + ( + ( + ( + Nl10CT2 ( * Nl10arg12 0 ) ) ( * Nl10arg22 0 ) ) ( * Nl10arg32 0 ) ) ( * Nl10arg42 0 ) ) ( * ( + 0 ( * Nl10arg12 1 ) ) undef85 ) ( * ( + 0 ( * Nl10arg22 1 ) ) undef86 ) ( * ( + 0 ( * Nl10arg32 1 ) ) undef87 ) ( * ( + 0 ( * Nl10arg42 1 ) ) undef88 ) ) 0 ) ) ))
(assert ( or ( and ( and ( >= lam14n0 0 ) ( >= lam14n1 0 ) ( >= lam14n2 0 ) ( >= lam14n3 0 ) ( >= lam14n4 0 ) ( >= lam14n5 0 ) ( >= lam14n6 0 ) ( >= lam14n7 0 ) ( > ( + ( * 1 lam14n3 ) ( * 1 lam14n4 ) ( * 1 lam14n5 ) ( * Nl10CT1 lam14n6 ) ( * Nl10CT2 lam14n7 ) ( - 1 ( - ( + ( + ( + ( + RFN1_CT ( * RFN1_arg1 0 ) ) ( * RFN1_arg2 0 ) ) ( * RFN1_arg3 0 ) ) ( * RFN1_arg4 0 ) ) RFN1_CT ) ) ) 0 ) ( = ( + ( * ( - 1 ) lam14n3 ) ( * Nl10arg11 lam14n6 ) ( * Nl10arg12 lam14n7 ) ( - ( - RFN1_arg1 ) ) ) 0 ) ( = ( + ( * ( - 1 ) lam14n4 ) ( * Nl10arg21 lam14n6 ) ( * Nl10arg22 lam14n7 ) ( - ( - RFN1_arg2 ) ) ) 0 ) ( = ( + ( * ( - 1 ) lam14n5 ) ( * Nl10arg31 lam14n6 ) ( * Nl10arg32 lam14n7 ) ( - ( - RFN1_arg3 ) ) ) 0 ) ( = ( + ( * Nl10arg41 lam14n6 ) ( * Nl10arg42 lam14n7 ) ( - ( - RFN1_arg4 ) ) ) 0 ) ( = ( + ( * ( - 1 ) lam14n0 ) ( - ( + 0 ( * RFN1_arg1 1 ) ) ) ) 0 ) ( = ( + ( * ( - 1 ) lam14n1 ) ( - ( + 0 ( * RFN1_arg2 1 ) ) ) ) 0 ) ( = ( + ( * ( - 1 ) lam14n2 ) ( - ( + 0 ( * RFN1_arg3 1 ) ) ) ) 0 ) ( = ( - ( + 0 ( * RFN1_arg4 1 ) ) ) 0 ) ) ( and ( and ( >= lam12n0 0 ) ( >= lam12n1 0 ) ( >= lam12n2 0 ) ( >= lam12n3 0 ) ( >= lam12n4 0 ) ( >= lam12n5 0 ) ( >= lam12n6 0 ) ( >= lam12n7 0 ) ( > ( + ( * 1 lam12n3 ) ( * 1 lam12n4 ) ( * 1 lam12n5 ) ( * Nl10CT1 lam12n6 ) ( * Nl10CT2 lam12n7 ) ( - 1 ( - RFN1_CT ) ) ) 0 ) ( = ( + ( * ( - 1 ) lam12n3 ) ( * Nl10arg11 lam12n6 ) ( * Nl10arg12 lam12n7 ) ( - ( - RFN1_arg1 ) ) ) 0 ) ( = ( + ( * ( - 1 ) lam12n4 ) ( * Nl10arg21 lam12n6 ) ( * Nl10arg22 lam12n7 ) ( - ( - RFN1_arg2 ) ) ) 0 ) ( = ( + ( * ( - 1 ) lam12n5 ) ( * Nl10arg31 lam12n6 ) ( * Nl10arg32 lam12n7 ) ( - ( - RFN1_arg3 ) ) ) 0 ) ( = ( + ( * Nl10arg41 lam12n6 ) ( * Nl10arg42 lam12n7 ) ( - ( - RFN1_arg4 ) ) ) 0 ) ( = ( * ( - 1 ) lam12n0 ) 0 ) ( = ( * ( - 1 ) lam12n1 ) 0 ) ( = ( * ( - 1 ) lam12n2 ) 0 ) ) ( and ( >= lam13n0 0 ) ( >= lam13n1 0 ) ( >= lam13n2 0 ) ( >= lam13n3 0 ) ( >= lam13n4 0 ) ( >= lam13n5 0 ) ( >= lam13n6 0 ) ( >= lam13n7 0 ) ( > ( + ( * 1 lam13n3 ) ( * 1 lam13n4 ) ( * 1 lam13n5 ) ( * Nl10CT1 lam13n6 ) ( * Nl10CT2 lam13n7 ) ( - 1 ( + ( - ( + ( + ( + ( + RFN1_CT ( * RFN1_arg1 0 ) ) ( * RFN1_arg2 0 ) ) ( * RFN1_arg3 0 ) ) ( * RFN1_arg4 0 ) ) RFN1_CT ) 1 ) ) ) 0 ) ( = ( + ( * ( - 1 ) lam13n3 ) ( * Nl10arg11 lam13n6 ) ( * Nl10arg12 lam13n7 ) ( - ( - RFN1_arg1 ) ) ) 0 ) ( = ( + ( * ( - 1 ) lam13n4 ) ( * Nl10arg21 lam13n6 ) ( * Nl10arg22 lam13n7 ) ( - ( - RFN1_arg2 ) ) ) 0 ) ( = ( + ( * ( - 1 ) lam13n5 ) ( * Nl10arg31 lam13n6 ) ( * Nl10arg32 lam13n7 ) ( - ( - RFN1_arg3 ) ) ) 0 ) ( = ( + ( * Nl10arg41 lam13n6 ) ( * Nl10arg42 lam13n7 ) ( - ( - RFN1_arg4 ) ) ) 0 ) ( = ( + ( * ( - 1 ) lam13n0 ) ( - ( + 0 ( * RFN1_arg1 1 ) ) ) ) 0 ) ( = ( + ( * ( - 1 ) lam13n1 ) ( - ( + 0 ( * RFN1_arg2 1 ) ) ) ) 0 ) ( = ( + ( * ( - 1 ) lam13n2 ) ( - ( + 0 ( * RFN1_arg3 1 ) ) ) ) 0 ) ( = ( - ( + 0 ( * RFN1_arg4 1 ) ) ) 0 ) ) ) ) ( and ( >= lam11n0 0 ) ( >= lam11n1 0 ) ( >= lam11n2 0 ) ( >= lam11n3 0 ) ( >= lam11n4 0 ) ( >= lam11n5 0 ) ( >= lam11n6 0 ) ( >= lam11n7 0 ) ( > ( + ( * 1 lam11n3 ) ( * 1 lam11n4 ) ( * 1 lam11n5 ) ( * Nl10CT1 lam11n6 ) ( * Nl10CT2 lam11n7 ) ( - 1 ) ) 0 ) ( = ( + ( * ( - 1 ) lam11n3 ) ( * Nl10arg11 lam11n6 ) ( * Nl10arg12 lam11n7 ) ) 0 ) ( = ( + ( * ( - 1 ) lam11n4 ) ( * Nl10arg21 lam11n6 ) ( * Nl10arg22 lam11n7 ) ) 0 ) ( = ( + ( * ( - 1 ) lam11n5 ) ( * Nl10arg31 lam11n6 ) ( * Nl10arg32 lam11n7 ) ) 0 ) ( = ( + ( * Nl10arg41 lam11n6 ) ( * Nl10arg42 lam11n7 ) ) 0 ) ( = ( * ( - 1 ) lam11n0 ) 0 ) ( = ( * ( - 1 ) lam11n1 ) 0 ) ( = ( * ( - 1 ) lam11n2 ) 0 ) ) ))
(check-sat)
(exit)
